* ENCODING=ISO-8859-1
NAME          CPLEX
ROWS
 N  obj1    
 G  c1      
 G  c2      
 G  c3      
 G  c4      
 G  c5      
 G  c6      
 G  c7      
 G  c8      
 G  c9      
 G  c10     
 G  c11     
 G  c12     
 G  c13     
 G  c14     
 G  c15     
 G  c16     
 G  c17     
 G  c18     
 G  c19     
 G  c20     
 G  c21     
 G  c22     
 G  c23     
 G  c24     
 G  c25     
 G  c26     
 G  c27     
 G  c28     
 G  c29     
 G  c30     
 G  c31     
 G  c32     
 G  c33     
 G  c34     
 G  c35     
 G  c36     
 G  c37     
 G  c38     
 G  c39     
 G  c40     
COLUMNS
    MARK0000  'MARKER'                 'INTORG'
    x1        obj1                            1
    x1        c25                           561
    x1        c34                           124
    x2        obj1                            1
    x2        c5                            453
    x3        obj1                            1
    x3        c6                            666
    x3        c10                           546
    x3        c28                           335
    x3        c31                           806
    x4        obj1                            1
    x4        c14                           557
    x4        c17                           943
    x4        c21                           189
    x4        c31                           419
    x4        c37                           569
    x4        c38                           702
    x5        obj1                            1
    x5        c11                           981
    x5        c27                           355
    x5        c30                           623
    x5        c40                           807
    x6        obj1                            1
    x6        c10                           551
    x6        c17                           944
    x6        c25                           606
    x6        c29                           211
    x6        c40                           891
    x7        obj1                            1
    x7        c1                            508
    x7        c10                           896
    x7        c16                           521
    x7        c25                           173
    x7        c32                           480
    x7        c37                           739
    x8        obj1                            1
    x8        c23                           949
    x8        c39                           545
    x9        obj1                            1
    x9        c16                           242
    x9        c17                           760
    x9        c24                           891
    x9        c26                           932
    x9        c34                           418
    x10       obj1                            1
    x10       c15                           808
    x10       c17                           493
    x10       c19                           669
    x10       c20                           119
    x10       c28                           118
    x10       c37                           766
    x11       obj1                            1
    x11       c5                            194
    x11       c13                           526
    x11       c28                           402
    x11       c35                           487
    x12       obj1                            1
    x12       c9                            291
    x12       c19                           768
    x12       c27                           525
    x12       c39                           763
    x13       obj1                            1
    x13       c9                            372
    x13       c32                           427
    x13       c38                           411
    x14       obj1                            1
    x14       c28                           285
    x15       obj1                            1
    x15       c22                           964
    x15       c24                           314
    x15       c27                           733
    x16       obj1                            1
    x16       c11                           649
    x16       c32                           730
    x17       obj1                            1
    x17       c5                            116
    x17       c18                           799
    x17       c25                           834
    x18       obj1                            1
    x18       c2                            981
    x18       c28                           278
    x18       c29                           193
    x18       c30                           216
    x18       c34                           574
    x19       obj1                            1
    x19       c22                           888
    x19       c33                           189
    x20       obj1                            1
    x20       c3                            526
    x20       c11                           512
    x20       c12                           871
    x20       c20                           283
    x20       c33                           991
    x20       c36                           260
    x20       c38                           639
    x21       obj1                            1
    x21       c1                            803
    x21       c5                            220
    x21       c10                           663
    x21       c11                           530
    x21       c12                           582
    x21       c29                           708
    x21       c34                           988
    x22       obj1                            1
    x22       c36                           744
    x23       obj1                            1
    x23       c14                           215
    x23       c19                           612
    x23       c23                           558
    x23       c27                           915
    x23       c35                           794
    x23       c36                           976
    x24       obj1                            1
    x24       c3                            950
    x24       c9                            674
    x24       c10                           373
    x24       c11                           565
    x24       c13                           161
    x24       c39                           542
    x25       obj1                            1
    x25       c7                            664
    x25       c17                           245
    x25       c25                           797
    x26       obj1                            1
    x26       c6                            394
    x26       c26                           738
    x26       c36                           581
    x26       c38                           819
    x27       obj1                            1
    x27       c2                            240
    x27       c16                           789
    x27       c21                           624
    x27       c29                           493
    x28       obj1                            1
    x28       c16                           727
    x28       c17                           119
    x28       c27                           120
    x28       c29                           432
    x28       c39                           705
    x29       obj1                            1
    x29       c1                            249
    x29       c31                           915
    x29       c38                           265
    x30       obj1                            1
    x30       c1                            707
    x30       c6                            396
    x30       c12                           959
    x30       c19                           219
    x30       c27                           721
    x30       c39                           125
    x31       obj1                            1
    x31       c1                            892
    x31       c2                            823
    x31       c7                            569
    x31       c23                           256
    x31       c37                           711
    x31       c39                           203
    x32       obj1                            1
    x32       c15                           836
    x32       c21                           248
    x32       c23                           135
    x32       c30                           668
    x32       c31                           332
    x33       obj1                            1
    x33       c9                            628
    x33       c11                           653
    x33       c17                           288
    x33       c18                           382
    x33       c22                           466
    x33       c27                           296
    x33       c32                           570
    x33       c35                           119
    x34       obj1                            1
    x34       c3                            838
    x34       c17                           909
    x34       c20                           401
    x34       c23                           227
    x34       c31                           418
    x35       obj1                            1
    x35       c28                           277
    x36       obj1                            1
    x36       c1                            392
    x36       c12                           935
    x37       obj1                            1
    x37       c10                           243
    x37       c12                           624
    x37       c25                           519
    x37       c28                           111
    x37       c35                           785
    x37       c37                           510
    x38       obj1                            1
    x38       c3                            390
    x38       c24                           798
    x38       c40                           546
    x39       obj1                            1
    x39       c5                            648
    x39       c18                           819
    x40       obj1                            1
    x40       c4                            787
    x40       c38                           159
    x41       obj1                            1
    x41       c15                           404
    x41       c19                           167
    x41       c28                           970
    x41       c31                           483
    x42       obj1                            1
    x42       c5                            442
    x42       c39                           633
    x43       obj1                            1
    x43       c4                            598
    x43       c21                           255
    x44       obj1                            1
    x44       c7                            204
    x44       c15                           378
    x44       c17                           273
    x44       c40                           901
    x45       obj1                            1
    x45       c33                           958
    x46       obj1                            1
    x46       c15                           301
    x46       c22                           313
    x46       c27                           447
    x46       c31                           188
    x46       c32                           437
    x46       c37                           546
    x47       obj1                            1
    x47       c3                            741
    x47       c9                            919
    x47       c25                           342
    x47       c29                           920
    x47       c36                           507
    x48       obj1                            1
    x48       c6                            739
    x48       c14                           591
    x48       c24                           920
    x48       c30                           197
    x48       c37                           758
    x48       c38                           829
    x49       obj1                            1
    x49       c2                            414
    x49       c3                            796
    x49       c18                           381
    x49       c22                           115
    x49       c27                           754
    x49       c29                           185
    x49       c37                           481
    x50       obj1                            1
    x50       c6                            977
    x50       c15                           348
    x50       c17                           400
    x50       c18                           754
    x50       c20                           780
    x50       c28                           978
    x51       obj1                            1
    x51       c7                            994
    x51       c26                           444
    x52       obj1                            1
    x52       c19                           873
    x52       c21                           884
    x52       c23                           971
    x52       c28                           218
    x52       c30                           890
    x53       obj1                            1
    x53       c7                            198
    x53       c13                           329
    x53       c23                           515
    x53       c28                           227
    x53       c33                           330
    x54       obj1                            1
    x54       c6                            765
    x54       c7                            731
    x54       c11                           210
    x54       c30                           500
    x54       c32                           747
    x54       c37                           398
    x55       obj1                            1
    x55       c5                            414
    x55       c9                            281
    x55       c13                           865
    x55       c37                           513
    x56       obj1                            1
    x56       c19                           328
    x56       c39                           571
    x57       obj1                            1
    x57       c6                            565
    x57       c10                           962
    x57       c12                           586
    x57       c32                           480
    x58       obj1                            1
    x58       c2                            209
    x58       c12                          1000
    x58       c29                           603
    x58       c31                           375
    x58       c33                           719
    x59       obj1                            1
    x59       c4                            495
    x59       c16                           428
    x59       c19                           978
    x59       c37                           566
    x60       obj1                            1
    x60       c9                            574
    x60       c12                           669
    x60       c23                           385
    x60       c35                           687
    x60       c38                           341
    x61       obj1                            1
    x61       c2                            733
    x61       c3                            450
    x61       c10                           118
    x61       c14                           245
    x61       c15                           477
    x61       c20                           897
    x61       c32                           493
    x61       c36                           803
    x62       obj1                            1
    x62       c30                           482
    x63       obj1                            1
    x63       c4                            640
    x64       obj1                            1
    x64       c8                            136
    x64       c11                           855
    x64       c15                           925
    x64       c18                           498
    x64       c27                           953
    x64       c31                           832
    x64       c34                           497
    x64       c36                           928
    x65       obj1                            1
    x66       obj1                            1
    x66       c3                            524
    x66       c20                           100
    x67       obj1                            1
    x67       c14                           950
    x67       c39                           302
    x68       obj1                            1
    x68       c9                            265
    x68       c18                           999
    x68       c27                           743
    x69       obj1                            1
    x69       c1                            345
    x69       c7                            207
    x69       c12                           914
    x70       obj1                            1
    x70       c27                           320
    x70       c35                           664
    x71       obj1                            1
    x71       c16                           297
    x71       c19                           917
    x72       obj1                            1
    x72       c2                            273
    x72       c8                            517
    x72       c13                           254
    x72       c17                           330
    x73       obj1                            1
    x73       c3                            987
    x73       c5                            447
    x73       c13                           618
    x73       c29                           226
    x73       c32                           611
    x73       c34                           387
    x74       obj1                            1
    x74       c13                           511
    x74       c19                           559
    x74       c35                           606
    x75       obj1                            1
    x75       c16                           464
    x75       c17                           209
    x75       c19                           312
    x75       c23                           849
    x75       c26                           345
    x75       c36                           316
    x75       c39                           230
    x76       obj1                            1
    x76       c4                            716
    x76       c8                            811
    x76       c22                           397
    x76       c30                           271
    x76       c37                           988
    x77       obj1                            1
    x77       c10                           437
    x77       c32                           128
    x77       c33                           983
    x78       obj1                            1
    x78       c2                            165
    x78       c8                            282
    x78       c23                           539
    x78       c30                           921
    x78       c36                           791
    x79       obj1                            1
    x79       c7                            492
    x79       c30                           696
    x79       c31                           938
    x80       obj1                            1
    x80       c2                            145
    x80       c15                           626
    x80       c23                           747
    x80       c28                           305
    MARK0001  'MARKER'                 'INTEND'
RHS
    rhs       c1                           1948
    rhs       c2                           1992
    rhs       c3                           3101
    rhs       c4                           1618
    rhs       c5                           1467
    rhs       c6                           2251
    rhs       c7                           2030
    rhs       c8                            873
    rhs       c9                           2002
    rhs       c10                          2395
    rhs       c11                          2478
    rhs       c12                          3570
    rhs       c13                          1632
    rhs       c14                          1279
    rhs       c15                          2552
    rhs       c16                          1734
    rhs       c17                          2957
    rhs       c18                          2316
    rhs       c19                          3201
    rhs       c20                          1290
    rhs       c21                          1100
    rhs       c22                          1572
    rhs       c23                          3066
    rhs       c24                          1462
    rhs       c25                          1916
    rhs       c26                          1230
    rhs       c27                          3441
    rhs       c28                          2252
    rhs       c29                          1986
    rhs       c30                          2732
    rhs       c31                          2853
    rhs       c32                          2552
    rhs       c33                          2085
    rhs       c34                          1494
    rhs       c35                          2071
    rhs       c36                          2953
    rhs       c37                          3773
    rhs       c38                          2083
    rhs       c39                          2310
    rhs       c40                          1573
BOUNDS
 LI bnd       x1        0
 LI bnd       x2        0
 LI bnd       x3        0
 LI bnd       x4        0
 LI bnd       x5        0
 LI bnd       x6        0
 LI bnd       x7        0
 LI bnd       x8        0
 LI bnd       x9        0
 LI bnd       x10       0
 LI bnd       x11       0
 LI bnd       x12       0
 LI bnd       x13       0
 LI bnd       x14       0
 LI bnd       x15       0
 LI bnd       x16       0
 LI bnd       x17       0
 LI bnd       x18       0
 LI bnd       x19       0
 LI bnd       x20       0
 LI bnd       x21       0
 LI bnd       x22       0
 LI bnd       x23       0
 LI bnd       x24       0
 LI bnd       x25       0
 LI bnd       x26       0
 LI bnd       x27       0
 LI bnd       x28       0
 LI bnd       x29       0
 LI bnd       x30       0
 LI bnd       x31       0
 LI bnd       x32       0
 LI bnd       x33       0
 LI bnd       x34       0
 LI bnd       x35       0
 LI bnd       x36       0
 LI bnd       x37       0
 LI bnd       x38       0
 LI bnd       x39       0
 LI bnd       x40       0
 LI bnd       x41       0
 LI bnd       x42       0
 LI bnd       x43       0
 LI bnd       x44       0
 LI bnd       x45       0
 LI bnd       x46       0
 LI bnd       x47       0
 LI bnd       x48       0
 LI bnd       x49       0
 LI bnd       x50       0
 LI bnd       x51       0
 LI bnd       x52       0
 LI bnd       x53       0
 LI bnd       x54       0
 LI bnd       x55       0
 LI bnd       x56       0
 LI bnd       x57       0
 LI bnd       x58       0
 LI bnd       x59       0
 LI bnd       x60       0
 LI bnd       x61       0
 LI bnd       x62       0
 LI bnd       x63       0
 LI bnd       x64       0
 LI bnd       x65       0
 LI bnd       x66       0
 LI bnd       x67       0
 LI bnd       x68       0
 LI bnd       x69       0
 LI bnd       x70       0
 LI bnd       x71       0
 LI bnd       x72       0
 LI bnd       x73       0
 LI bnd       x74       0
 LI bnd       x75       0
 LI bnd       x76       0
 LI bnd       x77       0
 LI bnd       x78       0
 LI bnd       x79       0
 LI bnd       x80       0
ENDATA
